Version identifier: 22.1.1.0 | 2022-11-28 | 9160aff4d
CPXPARAM_ClockType                               1
CPXPARAM_Read_DataCheck                          1
CPXPARAM_Threads                                 1
CPXPARAM_TimeLimit                               7200
CPXPARAM_MIP_Tolerances_AbsMIPGap                0
CPXPARAM_MIP_Tolerances_MIPGap                   0
CPXPARAM_MIP_Tolerances_Integrality              0
Tried aggregator 2 times.
MIP Presolve eliminated 4554 rows and 0 columns.
MIP Presolve modified 6072 coefficients.
Aggregator did 3036 substitutions.
Reduced MIP has 213933 rows, 15180 columns, and 1173318 nonzeros.
Reduced MIP has 15180 binaries, 0 generals, 0 SOSs, and 0 indicators.
Presolve time = 5.51 sec. (2541.99 ticks)
Probing time = 0.03 sec. (13.92 ticks)
Tried aggregator 1 time.
Detecting symmetries...
Reduced MIP has 213933 rows, 15180 columns, and 1173318 nonzeros.
Reduced MIP has 15180 binaries, 0 generals, 0 SOSs, and 0 indicators.
Presolve time = 3.74 sec. (2080.15 ticks)
Probing time = 0.04 sec. (13.92 ticks)
Clique table members: 183159.
MIP emphasis: balance optimality and feasibility.
MIP search method: dynamic search.
Parallel mode: none, using 1 thread.
Root relaxation solution time = 35.26 sec. (18731.87 ticks)

        Nodes                                         Cuts/
   Node  Left     Objective  IInf  Best Integer    Best Bound    ItCnt     Gap

      0     0    24667.5000 10668                  24667.5000    37586         
      0     0    19033.0101  8302                  Cuts: 3389   225911         
      0     0    18941.1013  8667                  Cuts: 2912   247224         
      0     0    18894.0579  8649               ZeroHalf: 2095   276617         
      0     0    18865.6346  8618               ZeroHalf: 1915   306904         
      0     0    18851.1099  8557               ZeroHalf: 1218   331769         
      0     0    18837.4394  8496               ZeroHalf: 1099   357095         
      0     0    18828.4128  8516                  Cuts: 1113   378529         

Zero-half cuts applied:  5461
Gomory fractional cuts applied:  16

Root node processing (before b&c):
  Real time             = 7200.21 sec. (1645892.07 ticks)
Sequential b&c:
  Real time             =    0.00 sec. (0.00 ticks)
                          ------------
Total (root+branch&cut) = 7200.21 sec. (1645892.07 ticks)
Solution is infeasible.

---------------------
@@@ MIP_time_limit_infeasible
Traceback (most recent call last):
  File "/scratch/scherif/DiverseSAT-journal_sup/DiverseSAT_Supplementary_Experiments/experiment-1/cplex/jobs/../solvers/CPLEX-BIN.py", line 132, in <module>
    print(f">>> Benchmark {os.path.basename(cnf_file)} k {k} OPT {int(prob.solution.get_objective_value())}"
  File "/users/scherif/.local/lib/python3.9/site-packages/cplex/_internal/_subinterfaces.py", line 7211, in get_objective_value
    return CPX_PROC.getobjval(self._env._e, self._cplex._lp)
  File "/users/scherif/.local/lib/python3.9/site-packages/cplex/_internal/_procedural.py", line 2055, in getobjval
    check_status(env, status)
  File "/users/scherif/.local/lib/python3.9/site-packages/cplex/_internal/_procedural.py", line 249, in __call__
    raise CplexSolverError(error_string, env, status)
cplex.exceptions.errors.CplexSolverError: CPLEX Error  1217: No solution exists.
